! string assignment w/ double quotes
&control
  prefix="string"
/
