! string assignment w/ single quotes
&control
  prefix='string'
/
