! string assignment w/o quotes
&control
  prefix=string
/
