# LAMMPS input for LJMD exercise.
units real
atom_style atomic
neighbor 3.0 bin
boundary p p p
neigh_modify delay 4 check yes every 1
read_data data.lj_108

pair_style lj/cut 8.5
pair_coeff 1 1 0.2379 3.405

timestep 5.0
thermo 100
thermo_style custom step temp ke pe etotal
fix  1 all nve
dump 1 all xyz 100 lj_108.xyz

run 10000
write_restart lj_108.restart
